(declare-fun var0 () String)
(assert (str.in.re var0 (re.++ (re.+ (re.+ (str.to.re "}}}"))) (re.++ (re.union (re.union (str.to.re "`") (str.to.re "{")) (re.* (str.to.re "|||"))) (re.++ (re.+ (re.union (str.to.re "^^") (str.to.re "___"))) (re.++ (re.union (re.union (str.to.re "@@") (str.to.re "[[[")) (re.union (str.to.re "\\") (str.to.re "]"))) (re.++ (re.* (re.+ (str.to.re "???"))) (re.++ (re.union (re.* (str.to.re "=")) (re.+ (str.to.re ">>>"))) (re.++ (re.* (re.union (str.to.re ";;;") (str.to.re "<"))) (re.++ (re.+ (re.* (str.to.re "::"))) (re.++ (re.+ (re.* (str.to.re "//"))) (re.++ (re.+ (re.union (str.to.re "--") (str.to.re "."))) (re.++ (re.union (re.union (str.to.re "*") (str.to.re "++")) (re.+ (str.to.re ",,"))) (re.++ (re.+ (re.* (str.to.re ")"))) (re.++ (re.+ (re.union (str.to.re "''") (str.to.re "((("))) (re.++ (re.* (re.* (str.to.re "&&&"))) (re.++ (re.+ (re.+ (str.to.re "%%"))) (re.++ (re.union (re.* (str.to.re "##")) (re.+ (str.to.re "$$$"))) (re.++ (re.+ (re.union (str.to.re "!!!") (str.to.re """"))) (re.++ (re.union (re.* (str.to.re "YYY")) (re.+ (str.to.re "ZZ"))) (re.++ (re.* (re.* (str.to.re "XXX"))) (re.++ (re.union (re.union (str.to.re "UUU") (str.to.re "VV")) (re.+ (str.to.re "WW"))) (re.++ (re.+ (re.+ (str.to.re "TT"))) (re.++ (re.union (re.* (str.to.re "RR")) (re.+ (str.to.re "SSS"))) (re.++ (re.* (re.+ (str.to.re "QQQ"))) (re.++ (re.* (re.+ (str.to.re "PP"))) (re.++ (re.union (re.union (str.to.re "MMM") (str.to.re "NN")) (re.+ (str.to.re "OO"))) (re.++ (re.union (re.+ (str.to.re "KKK")) (re.* (str.to.re "L"))) (re.++ (re.+ (re.union (str.to.re "II") (str.to.re "JJ"))) (re.++ (re.union (re.* (str.to.re "G")) (re.* (str.to.re "HH"))) (re.++ (re.+ (re.+ (str.to.re "F"))) (re.++ (re.* (re.union (str.to.re "DDD") (str.to.re "EE"))) (re.++ (re.* (re.* (str.to.re "CC"))) (re.++ (re.union (re.* (str.to.re "A")) (re.+ (str.to.re "BBB"))) (re.++ (re.+ (re.* (str.to.re "zz"))) (re.++ (re.+ (re.* (str.to.re "y"))) (re.++ (re.* (re.* (str.to.re "xx"))) (re.++ (re.+ (re.+ (str.to.re "www"))) (re.++ (re.+ (re.union (str.to.re "u") (str.to.re "vv"))) (re.++ (re.+ (re.union (str.to.re "sss") (str.to.re "tt"))) (re.++ (re.+ (re.* (str.to.re "rrr"))) (re.++ (re.union (re.union (str.to.re "nn") (str.to.re "o")) (re.union (str.to.re "pp") (str.to.re "qq"))) (re.++ (re.* (re.+ (str.to.re "mm"))) (re.++ (re.union (re.+ (str.to.re "jj")) (re.union (str.to.re "k") (str.to.re "ll"))) (re.++ (re.+ (re.union (str.to.re "h") (str.to.re "ii"))) (re.++ (re.+ (re.+ (str.to.re "ggg"))) (re.++ (re.+ (re.* (str.to.re "f"))) (re.++ (re.* (re.+ (str.to.re "e"))) (re.++ (re.union (re.* (str.to.re "c")) (re.+ (str.to.re "dd"))) (re.++ (re.* (re.+ (str.to.re "bb"))) (re.++ (re.+ (re.* (str.to.re "aaa"))) (re.++ (re.union (re.* (str.to.re "777")) (re.union (str.to.re "88") (str.to.re "99"))) (re.++ (re.+ (re.* (str.to.re "66"))) (re.++ (re.* (re.* (str.to.re "55"))) (re.++ (re.union (re.+ (str.to.re "333")) (re.+ (str.to.re "444"))) (re.++ (re.+ (re.* (str.to.re "22"))) (re.+ (re.union (str.to.re "0") (str.to.re "11")))))))))))))))))))))))))))))))))))))))))))))))))))))))))))
(check-sat)